projet_m2_wvcp/reduced_wvcp_dzn/mulsol.i.5.clq.dzn
cliques=[{0,1,3,4,5,6,17,18,19,22,23,26,32,33,39,40,41,42,49,50,56,61,63,72,73,82,84,93,97,99,100},{0,1,3,4,5,6,17,18,19,22,23,26,32,33,39,40,41,42,49,50,56,61,63,72,73,82,84,93,97,99,100},{2,11,25,27,34,38,48,51,52,55,59,62,66,67,70,71,79,80,81,85,86,87,88,89,90,91,92,95,96,98},{0,1,3,4,5,6,17,18,19,22,23,26,32,33,39,40,41,42,49,50,56,61,63,72,73,82,84,93,97,99,100},{0,1,4,3,5,6,17,18,19,22,23,26,32,33,39,40,41,42,49,50,56,61,63,72,73,82,84,93,97,99,100},{0,1,3,4,5,6,17,18,19,22,23,26,32,33,39,40,41,42,49,50,56,61,63,72,73,82,84,93,97,99,100},{0,1,3,4,6,5,17,18,19,22,23,26,32,33,39,40,41,42,49,50,56,61,63,72,73,82,84,93,97,99,100},{0,1,3,4,7,17,18,19,22,23,26,32,33,39,40,41,42,49,50,56,61,63,72,73,82,93,94,97,99,100},{1,8,17,18,19,32,33,49,50,61,63,72,97,99,100},{2,9,11,25,34,38,48,51,55,59,62,66,67,70,71,79,80,81,85,86,87,88,89,91,92,95,96,98},{10,11,15,25,38,48,59,62,66,70,71,79,80,81,85,86,91,92,95,96},{2,11,25,27,34,38,48,51,52,55,59,62,66,67,70,71,79,80,81,85,86,87,89,88,90,91,92,95,96,98},{0,1,3,4,12,17,18,19,20,22,23,26,32,33,39,40,41,42,49,50,56,61,63,72,73,82,93,97,99,100},{0,1,3,4,13,17,18,19,22,23,26,28,32,33,39,40,41,42,49,50,56,61,63,72,73,82,93,97,99,100},{11,14,21,25,38,48,54,59,62,66,70,71,79,80,81,85,86,91,92,95,96},{10,11,15,25,38,48,59,62,66,70,71,79,80,81,85,86,91,92,95,96},{11,16,24,25,37,38,48,59,66,70,79,80,81,85,86,91,92,95,96},{0,1,3,4,5,6,17,18,19,22,23,26,32,33,39,40,41,42,49,50,56,61,63,72,73,82,84,93,97,99,100},{0,1,3,4,5,6,17,18,19,22,23,26,32,33,39,40,41,42,49,50,56,61,63,72,73,82,84,93,97,99,100},{0,1,3,4,5,6,17,19,18,22,23,26,32,33,39,40,41,42,49,50,56,61,63,72,73,82,84,93,97,99,100},{0,1,3,4,12,17,18,19,20,22,23,26,32,33,39,40,41,42,49,50,56,61,63,72,73,82,93,97,99,100},{11,21,25,31,38,47,48,59,62,66,70,71,79,80,81,85,86,87,91,92,95,96,98},{0,1,3,4,5,6,17,18,19,22,23,26,32,33,39,40,41,42,49,50,56,61,63,72,73,82,84,93,97,99,100},{0,1,3,4,5,6,17,18,19,22,23,26,32,33,39,40,41,42,49,50,56,61,63,72,73,82,84,93,97,99,100},{11,16,24,25,37,38,48,59,66,70,79,80,81,85,86,91,92,95,96},{2,11,25,27,34,38,48,51,52,55,59,62,66,67,70,71,79,80,81,85,86,87,89,88,90,91,92,95,96,98},{0,1,3,4,5,6,17,18,19,22,23,26,32,33,39,40,41,42,49,50,56,61,63,72,73,82,84,93,97,99,100},{2,11,25,27,34,38,48,51,52,55,59,62,66,67,70,71,79,80,81,85,86,87,88,89,90,91,92,95,96,98},{0,1,3,4,13,17,18,19,22,23,26,28,32,33,39,40,41,42,49,50,56,61,63,72,73,82,93,97,99,100},{0,1,3,4,17,18,19,22,23,26,29,32,33,36,39,40,41,42,49,50,56,61,63,72,73,82,93,97,99,100},{2,11,25,30,34,38,48,51,55,59,62,66,67,70,71,76,79,80,81,85,86,87,88,89,91,92,95,96,98},{11,21,25,31,38,47,48,59,62,66,70,71,79,80,81,85,86,87,91,92,95,96,98},{0,1,3,4,5,6,17,18,19,22,23,26,32,33,39,40,41,42,49,50,56,61,63,72,73,82,84,93,97,99,100},{0,1,3,4,5,6,17,18,19,22,23,26,32,33,39,40,41,42,49,50,56,61,63,72,73,82,84,93,97,99,100},{2,11,25,27,34,38,48,51,52,55,59,62,66,67,70,71,79,80,81,85,86,87,88,89,90,91,92,95,96,98},{0,1,3,4,17,18,19,22,23,26,32,33,35,39,40,41,42,43,49,50,56,61,63,72,73,82,93,94,97,99,100},{0,1,3,4,17,18,19,22,23,26,29,32,33,36,39,40,41,42,49,50,56,61,63,72,73,82,93,97,99,100},{11,16,24,25,37,38,48,59,66,70,79,80,81,85,86,91,92,95,96},{2,11,25,27,34,38,48,51,52,55,59,62,66,67,70,71,79,80,81,85,86,87,89,88,90,91,92,95,96,98},{0,1,3,4,5,6,17,18,19,22,23,26,32,33,39,40,41,42,49,50,56,61,63,72,73,82,84,93,97,99,100},{0,1,3,4,5,6,17,18,19,22,23,26,32,33,39,40,41,42,49,50,56,61,63,72,73,82,84,93,97,99,100},{0,1,3,4,5,6,17,18,19,22,23,26,32,33,39,40,41,42,49,50,56,61,63,72,73,82,84,93,97,99,100},{0,1,3,4,5,6,17,18,19,22,23,26,32,33,39,40,41,42,49,50,56,61,63,72,73,82,84,93,97,99,100},{0,1,3,4,17,18,19,22,23,26,32,33,35,39,40,41,42,43,49,50,56,61,63,72,73,82,93,94,97,99,100},{11,25,38,44,46,48,53,58,59,65,66,70,74,78,79,80,81,83,85,86,91,92,95,96},{2,11,25,34,38,45,48,51,55,59,62,66,67,70,71,77,79,80,81,85,86,87,88,89,91,92,95,96,98},{11,25,38,44,46,48,53,58,59,65,66,70,74,78,79,80,81,83,85,86,91,92,95,96},{11,21,25,31,38,47,48,59,62,66,70,71,79,80,81,85,86,87,91,92,95,96,98},{2,11,25,27,34,38,48,51,52,55,59,62,66,67,70,71,79,80,81,85,86,87,89,88,90,91,92,95,96,98},{0,1,3,4,5,6,17,18,19,22,23,26,32,33,39,40,41,42,49,50,56,61,63,72,73,82,84,93,97,99,100},{0,1,3,4,5,6,17,18,19,22,23,26,32,33,39,40,41,42,50,49,56,61,63,72,73,82,84,93,97,99,100},{2,11,25,27,34,38,48,51,52,55,59,62,66,67,70,71,79,80,81,85,86,87,88,89,90,91,92,95,96,98},{2,11,25,27,34,38,48,51,52,55,59,62,66,67,70,71,79,80,81,85,86,87,88,89,90,91,92,95,96,98},{11,25,38,44,46,48,53,58,59,65,66,70,74,78,79,80,81,83,85,86,91,92,95,96},{11,14,21,25,38,48,54,59,62,66,70,71,79,80,81,85,86,91,92,95,96},{2,11,25,27,34,38,48,51,52,55,59,62,66,67,70,71,79,80,81,85,86,87,89,88,90,91,92,95,96,98},{0,1,3,4,5,6,17,18,19,22,23,26,32,33,39,40,41,42,49,50,56,61,63,72,73,82,84,93,97,99,100},{2,11,25,34,38,48,51,55,57,59,62,66,67,70,71,75,79,80,81,85,86,87,88,89,91,92,95,96,98,103},{11,25,38,44,46,48,53,58,59,65,66,70,74,78,79,80,81,83,85,86,91,92,95,96},{2,11,25,27,34,38,48,51,52,55,59,62,66,67,70,71,79,80,81,85,86,87,89,88,90,91,92,95,96,98},{0,1,17,18,19,22,32,33,39,40,41,42,49,50,56,60,61,63,72,82,97,99,100,101,102},{0,1,3,4,5,6,17,18,19,22,23,26,32,33,39,40,41,42,49,50,56,61,63,72,73,82,84,93,97,99,100},{2,11,25,27,34,38,48,51,52,55,59,62,66,67,70,71,79,80,81,85,86,87,89,88,90,91,92,95,96,98},{0,1,3,4,5,6,17,18,19,22,23,26,32,33,39,40,41,42,49,50,56,61,63,72,73,82,84,93,97,99,100},{2,11,25,38,48,51,55,59,62,64,66,67,70,71,79,80,81,85,86,87,88,89,91,92,95,96,98},{11,25,38,44,46,48,53,58,59,65,66,70,74,78,79,80,81,83,85,86,91,92,95,96},{2,11,25,27,34,38,48,51,52,55,59,62,66,67,70,71,79,80,81,85,86,87,89,88,90,91,92,95,96,98},{2,11,25,27,34,38,48,51,52,55,59,62,66,67,70,71,79,80,81,85,86,87,88,89,90,91,92,95,96,98},{2,11,25,34,38,48,51,55,59,62,66,67,68,69,70,71,75,79,80,81,85,86,87,88,89,91,92,95,96,98},{2,11,25,34,38,48,51,55,59,62,66,67,69,68,70,71,75,79,80,81,85,86,87,88,89,91,92,95,96,98},{2,11,25,27,34,38,48,51,52,55,59,62,66,67,70,71,79,80,81,85,86,87,89,88,90,91,92,95,96,98},{2,11,25,27,34,38,48,51,52,55,59,62,66,67,70,71,79,80,81,85,86,87,89,88,90,91,92,95,96,98},{0,1,3,4,5,6,17,18,19,22,23,26,32,33,39,40,41,42,49,50,56,61,63,72,73,82,84,93,97,99,100},{0,1,3,4,5,6,17,18,19,22,23,26,32,33,39,40,41,42,49,50,56,61,63,72,73,82,84,93,97,99,100},{11,25,38,44,46,48,53,58,59,65,66,70,74,78,79,80,81,83,85,86,91,92,95,96},{2,11,25,34,38,48,51,55,57,59,62,66,67,70,71,75,79,80,81,85,86,87,88,89,91,92,95,96,98,103},{2,11,25,30,34,38,48,51,55,59,62,66,67,70,71,76,79,80,81,85,86,87,88,89,91,92,95,96,98},{2,11,25,34,38,45,48,51,55,59,62,66,67,70,71,77,79,80,81,85,86,87,88,89,91,92,95,96,98},{11,25,38,44,46,48,53,58,59,65,66,70,74,78,79,80,81,83,85,86,91,92,95,96},{2,11,25,27,34,38,48,51,52,55,59,62,66,67,70,71,79,80,81,85,86,87,89,88,90,91,92,95,96,98},{2,11,25,27,34,38,48,51,52,55,59,62,66,67,70,71,79,80,81,85,86,87,89,88,90,91,92,95,96,98},{2,11,25,27,34,38,48,51,52,55,59,62,66,67,70,71,79,80,81,85,86,87,89,88,90,91,92,95,96,98},{0,1,3,4,5,6,17,18,19,22,23,26,32,33,39,40,41,42,49,50,56,61,63,72,73,82,84,93,97,99,100},{11,25,38,44,46,48,53,58,59,65,66,70,74,78,79,80,81,83,85,86,91,92,95,96},{0,1,3,4,5,6,17,18,19,22,23,26,32,33,39,40,41,42,49,50,56,61,63,72,73,82,84,93,97,99,100},{2,11,25,27,34,38,48,51,52,55,59,62,66,67,70,71,79,80,81,85,86,87,89,88,90,91,92,95,96,98},{2,11,25,27,34,38,48,51,52,55,59,62,66,67,70,71,79,80,81,85,86,87,89,88,90,91,92,95,96,98},{2,11,25,27,34,38,48,51,52,55,59,62,66,67,70,71,79,80,81,85,86,87,89,88,90,91,92,95,96,98},{2,11,25,27,34,38,48,51,52,55,59,62,66,67,70,71,79,80,81,85,86,87,88,89,90,91,92,95,96,98},{2,11,25,27,34,38,48,51,52,55,59,62,66,67,70,71,79,80,81,85,86,87,89,88,90,91,92,95,96,98},{2,11,25,27,34,38,48,51,52,55,59,62,66,67,70,71,79,80,81,85,86,87,88,89,90,91,92,95,96,98},{2,11,25,27,34,38,48,51,52,55,59,62,66,67,70,71,79,80,81,85,86,87,89,88,90,91,92,95,96,98},{2,11,25,27,34,38,48,51,52,55,59,62,66,67,70,71,79,80,81,85,86,87,89,88,90,92,91,95,96,98},{0,1,3,4,5,6,17,18,19,22,23,26,32,33,39,40,41,42,49,50,56,61,63,72,73,82,84,93,97,99,100},{0,1,3,4,17,18,19,22,23,26,32,33,35,39,40,41,42,43,49,50,56,61,63,72,73,82,93,94,97,99,100},{2,11,25,27,34,38,48,51,52,55,59,62,66,67,70,71,79,80,81,85,86,87,89,88,90,91,92,95,96,98},{2,11,25,27,34,38,48,51,52,55,59,62,66,67,70,71,79,80,81,85,86,87,89,88,90,91,92,95,96,98},{0,1,3,4,5,6,17,18,19,22,23,26,32,33,39,40,41,42,49,50,56,61,63,72,73,82,84,93,97,99,100},{2,11,25,27,34,38,48,51,52,55,59,62,66,67,70,71,79,80,81,85,86,87,89,88,90,91,92,95,96,98},{0,1,3,4,5,6,17,18,19,22,23,26,32,33,39,40,41,42,49,50,56,61,63,72,73,82,84,93,97,99,100},{0,1,3,4,5,6,17,18,19,22,23,26,32,33,39,40,41,42,49,50,56,61,63,72,73,82,84,93,97,100,99},{0,1,17,18,19,22,32,33,39,40,41,42,49,50,56,60,61,63,72,82,97,99,100,101,102},{0,1,17,18,19,22,32,33,39,40,41,42,49,50,56,60,61,63,72,82,97,99,100,101,102},{2,11,25,34,38,48,51,55,57,59,62,66,67,70,71,75,79,80,81,85,86,87,88,89,91,92,95,96,98,103}];
nr_cliques=104;
