projet_m2_wvcp/reduced_wvcp_dzn/mulsol.i.5.dzn
name="mulsol.i.5";
nr_vertices=104;
nr_edges=2121;
neighborhoods=[{1,3,4,5,6,7,11,12,13,17,18,19,20,22,23,26,28,29,32,33,35,36,38,39,40,41,42,43,49,50,56,60,61,63,72,73,79,80,82,84,85,93,94,95,97,99,100,101,102},{0,3,4,5,6,7,8,12,13,17,18,19,20,22,23,26,28,29,32,33,35,36,39,40,41,42,43,44,46,49,50,56,60,61,63,72,73,74,82,83,84,93,94,97,99,100,101,102},{9,11,25,27,30,32,34,38,45,48,51,52,55,57,59,61,62,64,66,67,68,69,70,71,75,76,77,79,80,81,85,86,87,88,89,90,91,92,95,96,98,103},{0,1,4,5,6,7,12,13,17,18,19,20,22,23,26,28,29,32,33,35,36,39,40,41,42,43,49,50,56,61,63,72,73,79,82,84,93,94,97,99,100},{0,1,3,5,6,7,12,13,17,18,19,20,22,23,26,28,29,32,33,35,36,39,40,41,42,43,49,50,56,61,63,72,73,79,82,84,93,94,97,99,100},{0,1,3,4,6,17,18,19,22,23,26,32,33,39,40,41,42,49,50,56,61,63,72,73,79,82,84,93,97,99,100},{0,1,3,4,5,17,18,19,22,23,26,32,33,39,40,41,42,49,50,56,61,63,72,73,79,82,84,93,97,99,100},{0,1,3,4,17,18,19,22,23,26,32,33,39,40,41,42,49,50,56,61,63,72,73,79,82,93,94,97,99,100},{1,11,17,18,19,25,32,33,38,48,49,50,59,61,63,66,70,72,79,80,81,85,86,91,92,95,96,97,99,100},{2,11,25,32,34,38,48,51,55,59,61,62,66,67,70,71,79,80,81,85,86,87,88,89,91,92,95,96,98},{11,15,25,32,38,48,59,61,62,66,70,71,79,80,81,85,86,91,92,95,96},{0,2,8,9,10,14,15,16,21,24,25,27,30,31,34,37,38,39,40,41,44,45,46,47,48,51,52,53,54,55,57,58,59,60,62,64,65,66,67,68,69,70,71,74,75,76,77,78,79,80,81,82,83,85,86,87,88,89,90,91,92,95,96,98,101,102,103},{0,1,3,4,17,18,19,20,22,23,26,32,33,39,40,41,42,49,50,56,61,63,72,73,79,82,93,97,99,100},{0,1,3,4,17,18,19,22,23,26,28,32,33,39,40,41,42,49,50,56,61,63,72,73,79,82,93,97,99,100},{11,21,25,32,38,48,54,59,61,62,66,70,71,79,80,81,85,86,91,92,95,96},{10,11,25,32,38,48,59,61,62,66,70,71,79,80,81,85,86,91,92,95,96},{11,24,25,32,37,38,48,59,61,66,70,79,80,81,85,86,91,92,95,96},{0,1,3,4,5,6,7,8,12,13,18,19,20,22,23,26,28,29,32,33,35,36,39,40,41,42,43,44,49,50,56,60,61,63,72,73,74,82,83,84,93,94,97,99,100,101,102},{0,1,3,4,5,6,7,8,12,13,17,19,20,22,23,26,28,29,32,33,35,36,39,40,41,42,43,49,50,56,60,61,63,72,73,82,84,93,94,97,99,100,101,102},{0,1,3,4,5,6,7,8,12,13,17,18,20,22,23,26,28,29,32,33,35,36,39,40,41,42,43,49,50,56,60,61,63,72,73,82,84,93,94,97,99,100,101,102},{0,1,3,4,12,17,18,19,22,23,26,32,33,39,40,41,42,49,50,56,61,63,72,73,79,82,93,97,99,100},{11,14,25,31,32,38,47,48,54,59,61,62,66,70,71,79,80,81,85,86,87,91,92,95,96,98},{0,1,3,4,5,6,7,12,13,17,18,19,20,23,26,28,29,32,33,35,36,39,40,41,42,43,49,50,56,60,61,63,72,73,82,84,93,94,97,99,100,101,102},{0,1,3,4,5,6,7,12,13,17,18,19,20,22,26,28,29,32,33,35,36,39,40,41,42,43,49,50,56,61,63,72,73,79,82,84,93,94,97,99,100},{11,16,25,32,37,38,48,59,61,66,70,79,80,81,85,86,91,92,95,96},{2,8,9,10,11,14,15,16,21,24,27,30,31,34,37,38,44,45,46,47,48,51,52,53,54,55,57,58,59,62,64,65,66,67,68,69,70,71,74,75,76,77,78,79,80,81,83,85,86,87,88,89,90,91,92,95,96,98,103},{0,1,3,4,5,6,7,12,13,17,18,19,20,22,23,28,29,32,33,35,36,39,40,41,42,43,49,50,56,61,63,72,73,79,82,84,93,94,97,99,100},{2,11,25,32,34,38,48,51,52,55,59,61,62,66,67,70,71,79,80,81,85,86,87,88,89,90,91,92,95,96,98},{0,1,3,4,13,17,18,19,22,23,26,32,33,39,40,41,42,49,50,56,61,63,72,73,79,82,93,97,99,100},{0,1,3,4,17,18,19,22,23,26,32,33,36,39,40,41,42,49,50,56,61,63,72,73,79,82,93,97,99,100},{2,11,25,32,34,38,48,51,55,59,61,62,66,67,70,71,76,79,80,81,85,86,87,88,89,91,92,95,96,98},{11,21,25,32,38,47,48,55,59,61,62,66,70,71,79,80,81,85,86,87,91,92,95,96,98},{0,1,2,3,4,5,6,7,8,9,10,12,13,14,15,16,17,18,19,20,21,22,23,24,26,27,28,29,30,31,33,34,35,36,37,39,40,41,42,43,44,45,46,47,49,50,51,52,53,54,55,56,57,58,60,61,62,63,64,65,67,68,69,71,72,73,74,75,76,77,78,82,83,84,87,88,89,90,93,94,97,98,99,100,101,102,103},{0,1,3,4,5,6,7,8,12,13,17,18,19,20,22,23,26,28,29,32,35,36,39,40,41,42,43,44,46,49,50,56,58,60,61,63,65,72,73,74,78,82,83,84,93,94,97,99,100,101,102},{2,9,11,25,27,30,32,38,45,48,51,52,55,57,59,61,62,66,67,68,69,70,71,75,76,77,79,80,81,85,86,87,88,89,90,91,92,95,96,98,103},{0,1,3,4,17,18,19,22,23,26,32,33,39,40,41,42,43,49,50,56,61,63,72,73,79,82,93,94,97,99,100},{0,1,3,4,17,18,19,22,23,26,29,32,33,39,40,41,42,49,50,56,61,63,72,73,79,82,93,97,99,100},{11,16,24,25,32,38,48,59,61,66,70,79,80,81,85,86,91,92,95,96},{0,2,8,9,10,11,14,15,16,21,24,25,27,30,31,34,37,39,40,44,45,46,47,48,51,52,53,54,55,57,58,59,60,62,64,65,66,67,68,69,70,71,74,75,76,77,78,79,80,81,83,85,86,87,88,89,90,91,92,95,96,98,101,102,103},{0,1,3,4,5,6,7,11,12,13,17,18,19,20,22,23,26,28,29,32,33,35,36,38,40,41,42,43,49,50,56,60,61,63,72,73,79,82,84,85,93,94,95,97,99,100,101,102},{0,1,3,4,5,6,7,11,12,13,17,18,19,20,22,23,26,28,29,32,33,35,36,38,39,41,42,43,49,50,56,60,61,63,72,73,79,82,84,85,93,94,97,99,100,101,102},{0,1,3,4,5,6,7,11,12,13,17,18,19,20,22,23,26,28,29,32,33,35,36,39,40,42,43,49,50,56,60,61,63,72,73,79,82,84,93,94,97,99,100,101,102},{0,1,3,4,5,6,7,12,13,17,18,19,20,22,23,26,28,29,32,33,35,36,39,40,41,43,49,50,56,60,61,63,72,73,79,82,84,93,94,97,99,100,101,102},{0,1,3,4,17,18,19,22,23,26,32,33,35,39,40,41,42,49,50,56,61,63,72,73,79,82,93,94,97,99,100},{1,11,17,25,32,33,38,46,48,53,58,59,61,65,66,70,72,74,78,79,80,81,83,85,86,91,92,95,96,97},{2,11,25,32,34,38,48,51,55,59,61,62,66,67,70,71,77,79,80,81,85,86,87,88,89,91,92,95,96,98},{1,11,25,32,33,38,44,48,53,58,59,61,65,66,70,72,74,78,79,80,81,83,85,86,91,92,95,96,97},{11,21,25,31,32,38,48,54,55,59,61,62,64,66,67,70,71,79,80,81,85,86,87,91,92,95,96,98},{2,8,9,10,11,14,15,16,21,24,25,27,30,31,34,37,38,44,45,46,47,51,52,53,54,55,57,58,59,62,64,65,66,67,68,69,70,71,74,75,76,77,78,79,80,81,83,85,86,87,88,89,90,91,92,95,96,98,103},{0,1,3,4,5,6,7,8,12,13,17,18,19,20,22,23,26,28,29,32,33,35,36,39,40,41,42,43,50,56,60,61,63,72,73,82,84,93,94,97,99,100,101,102},{0,1,3,4,5,6,7,8,12,13,17,18,19,20,22,23,26,28,29,32,33,35,36,39,40,41,42,43,49,56,60,61,63,72,73,82,84,93,94,97,99,100,101,102},{2,9,11,25,27,30,32,34,38,45,48,52,55,57,59,61,62,64,66,67,68,69,70,71,75,76,77,79,80,81,85,86,87,88,89,90,91,92,95,96,98,103},{2,11,25,27,32,34,38,48,51,55,59,61,62,66,67,70,71,79,80,81,85,86,87,88,89,90,91,92,95,96,98},{11,25,32,38,44,46,48,58,59,61,65,66,70,74,78,79,80,81,83,85,86,91,92,95,96},{11,14,21,25,32,38,47,48,59,61,62,66,70,71,79,80,81,85,86,91,92,95,96,98},{2,9,11,25,27,30,31,32,34,38,45,47,48,51,52,57,59,61,62,64,66,67,68,69,70,71,75,76,77,79,80,81,85,86,87,88,89,90,91,92,95,96,98,103},{0,1,3,4,5,6,7,12,13,17,18,19,20,22,23,26,28,29,32,33,35,36,39,40,41,42,43,49,50,60,61,63,72,73,82,84,93,94,97,99,100,101,102},{2,11,25,32,34,38,48,51,55,59,61,62,66,67,70,71,75,79,80,81,85,86,87,88,89,91,92,95,96,98,103},{11,25,32,33,38,44,46,48,53,59,61,65,66,70,74,78,79,80,81,83,85,86,91,92,95,96,97},{2,8,9,10,11,14,15,16,21,24,25,27,30,31,34,37,38,44,45,46,47,48,51,52,53,54,55,57,58,60,62,64,65,66,67,68,69,70,71,74,75,76,77,78,79,80,81,83,85,86,87,88,89,90,91,92,95,96,98,101,103},{0,1,11,17,18,19,22,32,33,38,39,40,41,42,49,50,56,59,61,63,66,72,79,80,81,82,85,95,97,99,100,101,102},{0,1,2,3,4,5,6,7,8,9,10,12,13,14,15,16,17,18,19,20,21,22,23,24,26,27,28,29,30,31,32,33,34,35,36,37,39,40,41,42,43,44,45,46,47,49,50,51,52,53,54,55,56,57,58,60,62,63,64,65,67,68,69,71,72,73,74,75,76,77,78,82,83,84,87,88,89,90,93,94,97,98,99,100,101,102,103},{2,9,10,11,14,15,21,25,27,30,31,32,34,38,45,47,48,51,52,54,55,57,59,61,64,66,67,68,69,70,71,75,76,77,79,80,81,85,86,87,88,89,90,91,92,95,96,98,103},{0,1,3,4,5,6,7,8,12,13,17,18,19,20,22,23,26,28,29,32,33,35,36,39,40,41,42,43,49,50,56,60,61,72,73,74,82,83,84,93,94,97,99,100,101,102},{2,11,25,32,38,47,48,51,55,59,61,62,66,67,70,71,79,80,81,85,86,87,88,89,91,92,95,96,98},{11,25,32,33,38,44,46,48,53,58,59,61,66,70,74,78,79,80,81,83,85,86,91,92,95,96},{2,8,9,10,11,14,15,16,21,24,25,27,30,31,34,37,38,44,45,46,47,48,51,52,53,54,55,57,58,59,60,62,64,65,67,68,69,70,71,74,75,76,77,78,79,80,81,83,85,86,87,88,89,90,91,92,95,96,98,103},{2,9,11,25,27,30,32,34,38,45,47,48,51,52,55,57,59,61,62,64,66,68,69,70,71,75,76,77,79,80,81,85,86,87,88,89,90,91,92,95,96,98,103},{2,11,25,32,34,38,48,51,55,59,61,62,66,67,69,70,71,75,79,80,81,85,86,87,88,89,91,92,95,96,98},{2,11,25,32,34,38,48,51,55,59,61,62,66,67,68,70,71,75,79,80,81,85,86,87,88,89,91,92,95,96,98},{2,8,9,10,11,14,15,16,21,24,25,27,30,31,34,37,38,44,45,46,47,48,51,52,53,54,55,57,58,59,62,64,65,66,67,68,69,71,74,75,76,77,78,79,80,81,83,85,86,87,88,89,90,91,92,95,96,98,103},{2,9,10,11,14,15,21,25,27,30,31,32,34,38,45,47,48,51,52,54,55,57,59,61,62,64,66,67,68,69,70,75,76,77,79,80,81,85,86,87,88,89,90,91,92,95,96,98,99,103},{0,1,3,4,5,6,7,8,12,13,17,18,19,20,22,23,26,28,29,32,33,35,36,39,40,41,42,43,44,46,49,50,56,60,61,63,73,74,78,82,83,84,93,94,97,99,100,101,102},{0,1,3,4,5,6,7,12,13,17,18,19,20,22,23,26,28,29,32,33,35,36,39,40,41,42,43,49,50,56,61,63,72,79,82,84,93,94,97,99,100},{1,11,17,25,32,33,38,44,46,48,53,58,59,61,63,65,66,70,72,78,79,80,81,83,85,86,91,92,95,96,97},{2,11,25,32,34,38,48,51,55,57,59,61,62,66,67,68,69,70,71,79,80,81,85,86,87,88,89,91,92,95,96,98,103},{2,11,25,30,32,34,38,48,51,55,59,61,62,66,67,70,71,79,80,81,85,86,87,88,89,91,92,95,96,98},{2,11,25,32,34,38,45,48,51,55,59,61,62,66,67,70,71,79,80,81,85,86,87,88,89,91,92,95,96,98},{11,25,32,33,38,44,46,48,53,58,59,61,65,66,70,72,74,79,80,81,83,85,86,91,92,95,96,97},{0,2,3,4,5,6,7,8,9,10,11,12,13,14,15,16,20,21,23,24,25,26,27,28,29,30,31,34,35,36,37,38,39,40,41,42,43,44,45,46,47,48,51,52,53,54,55,57,58,59,60,62,64,65,66,67,68,69,70,71,73,74,75,76,77,78,80,81,82,83,84,85,86,87,88,89,90,91,92,93,94,95,96,98,101,102,103},{0,2,8,9,10,11,14,15,16,21,24,25,27,30,31,34,37,38,44,45,46,47,48,51,52,53,54,55,57,58,59,60,62,64,65,66,67,68,69,70,71,74,75,76,77,78,79,81,83,85,86,87,88,89,90,91,92,95,96,98,101,102,103},{2,8,9,10,11,14,15,16,21,24,25,27,30,31,34,37,38,44,45,46,47,48,51,52,53,54,55,57,58,59,60,62,64,65,66,67,68,69,70,71,74,75,76,77,78,79,80,83,85,86,87,88,89,90,91,92,95,96,98,101,102,103},{0,1,3,4,5,6,7,11,12,13,17,18,19,20,22,23,26,28,29,32,33,35,36,39,40,41,42,43,49,50,56,60,61,63,72,73,79,84,85,93,94,97,99,100,101,102},{1,11,17,25,32,33,38,44,46,48,53,58,59,61,63,65,66,70,72,74,78,79,80,81,85,86,91,92,95,96,97,100},{0,1,3,4,5,6,17,18,19,22,23,26,32,33,39,40,41,42,49,50,56,61,63,72,73,79,82,93,97,99,100},{0,2,8,9,10,11,14,15,16,21,24,25,27,30,31,34,37,38,39,40,44,45,46,47,48,51,52,53,54,55,57,58,59,60,62,64,65,66,67,68,69,70,71,74,75,76,77,78,79,80,81,82,83,86,87,88,89,90,91,92,95,96,98,101,102,103},{2,8,9,10,11,14,15,16,21,24,25,27,30,31,34,37,38,44,45,46,47,48,51,52,53,54,55,57,58,59,62,64,65,66,67,68,69,70,71,74,75,76,77,78,79,80,81,83,85,87,88,89,90,91,92,95,96,98,103},{2,9,11,21,25,27,30,31,32,34,38,45,47,48,51,52,55,57,59,61,62,64,66,67,68,69,70,71,75,76,77,79,80,81,85,86,88,89,90,91,92,95,96,98,103},{2,9,11,25,27,30,32,34,38,45,48,51,52,55,57,59,61,62,64,66,67,68,69,70,71,75,76,77,79,80,81,85,86,87,89,90,91,92,95,96,98,103},{2,9,11,25,27,30,32,34,38,45,48,51,52,55,57,59,61,62,64,66,67,68,69,70,71,75,76,77,79,80,81,85,86,87,88,90,91,92,95,96,98,103},{2,11,25,27,32,34,38,48,51,52,55,59,61,62,66,67,70,71,79,80,81,85,86,87,88,89,91,92,95,96,98},{2,8,9,10,11,14,15,16,21,24,25,27,30,31,34,37,38,44,45,46,47,48,51,52,53,54,55,57,58,59,62,64,65,66,67,68,69,70,71,74,75,76,77,78,79,80,81,83,85,86,87,88,89,90,92,95,96,98,103},{2,8,9,10,11,14,15,16,21,24,25,27,30,31,34,37,38,44,45,46,47,48,51,52,53,54,55,57,58,59,62,64,65,66,67,68,69,70,71,74,75,76,77,78,79,80,81,83,85,86,87,88,89,90,91,95,96,98,103},{0,1,3,4,5,6,7,12,13,17,18,19,20,22,23,26,28,29,32,33,35,36,39,40,41,42,43,49,50,56,61,63,72,73,79,82,84,94,97,99,100},{0,1,3,4,7,17,18,19,22,23,26,32,33,35,39,40,41,42,43,49,50,56,61,63,72,73,79,82,93,97,99,100},{0,2,8,9,10,11,14,15,16,21,24,25,27,30,31,34,37,38,39,44,45,46,47,48,51,52,53,54,55,57,58,59,60,62,64,65,66,67,68,69,70,71,74,75,76,77,78,79,80,81,83,85,86,87,88,89,90,91,92,96,98,101,102,103},{2,8,9,10,11,14,15,16,21,24,25,27,30,31,34,37,38,44,45,46,47,48,51,52,53,54,55,57,58,59,62,64,65,66,67,68,69,70,71,74,75,76,77,78,79,80,81,83,85,86,87,88,89,90,91,92,95,98,103},{0,1,3,4,5,6,7,8,12,13,17,18,19,20,22,23,26,28,29,32,33,35,36,39,40,41,42,43,44,46,49,50,56,58,60,61,63,72,73,74,78,82,83,84,93,94,99,100,101,102},{2,9,11,21,25,27,30,31,32,34,38,45,47,48,51,52,54,55,57,59,61,62,64,66,67,68,69,70,71,75,76,77,79,80,81,85,86,87,88,89,90,91,92,95,96,103},{0,1,3,4,5,6,7,8,12,13,17,18,19,20,22,23,26,28,29,32,33,35,36,39,40,41,42,43,49,50,56,60,61,63,71,72,73,82,84,93,94,97,100,101,102},{0,1,3,4,5,6,7,8,12,13,17,18,19,20,22,23,26,28,29,32,33,35,36,39,40,41,42,43,49,50,56,60,61,63,72,73,82,83,84,93,94,97,99,101,102},{0,1,11,17,18,19,22,32,33,38,39,40,41,42,49,50,56,59,60,61,63,72,79,80,81,82,85,95,97,99,100,102},{0,1,11,17,18,19,22,32,33,38,39,40,41,42,49,50,56,60,61,63,72,79,80,81,82,85,95,97,99,100,101},{2,11,25,32,34,38,48,51,55,57,59,61,62,66,67,70,71,75,79,80,81,85,86,87,88,89,91,92,95,96,98}];
weights=[19,19,19,19,19,19,19,19,19,19,19,18,18,18,18,18,18,17,17,17,17,17,16,16,16,15,15,15,15,15,15,15,14,14,14,14,14,14,13,13,13,13,13,13,13,13,13,13,12,12,12,12,12,12,12,11,10,10,10,9,9,8,8,8,8,8,7,7,7,7,6,6,6,6,6,5,5,5,5,4,4,4,4,4,4,3,3,3,3,3,3,2,2,2,2,1,1,1,1,1,1,1,1,1];
